
Gurobi 9.5.0 (linux64) logging started Sat Nov  4 11:38:21 2023

Set parameter LogFile to value "/lustre1/scratch/348/vsc34888/JointResearch/05.Models/06.Benchmarking/E.Representative_days_based_on_Line_Benefits_OptModel/RTS24_ByStages_nc90/openStarNet_RTS24_ByStages_nc90.log"
Set parameter Method to value 2
Set parameter MIPFocus to value 1
Set parameter Presolve to value 2
Set parameter RINS to value 100
Set parameter MIPGap to value 0.01
Set parameter Threads to value 36
Set parameter TimeLimit to value 604800
Set parameter IterationLimit to value 760000000
Gurobi Optimizer version 9.5.0 build v9.5.0rc5 (linux64)
Thread count: 36 physical cores, 36 logical processors, using up to 36 threads
Optimize a model with 40053 rows, 22654 columns and 108983 nonzeros
Model fingerprint: 0x44cd8d5e
Variable types: 22615 continuous, 39 integer (39 binary)
Coefficient statistics:
  Matrix range     [1e-03, 2e+03]
  Objective range  [1e+00, 1e+00]
  Bounds range     [4e-04, 3e+00]
  RHS range        [4e-04, 3e+00]
Presolve removed 19533 rows and 9589 columns
Presolve time: 0.20s
Presolved: 20520 rows, 13065 columns, 71256 nonzeros
Variable types: 13026 continuous, 39 integer (39 binary)
Found heuristic solution: objective 147.0822504
Root relaxation presolved: 20520 rows, 13065 columns, 71256 nonzeros

Root barrier log...

Ordering time: 0.01s

Barrier statistics:
 Dense cols : 39
 AA' NZ     : 1.518e+05
 Factor NZ  : 5.088e+05 (roughly 18 MB of memory)
 Factor Ops : 1.602e+07 (less than 1 second per iteration)
 Threads    : 36

                  Objective                Residual
Iter       Primal          Dual         Primal    Dual     Compl     Time
   0   6.26829997e+05 -1.82984692e+08  4.60e+00 4.85e+02  1.29e+04     0s
   1   6.99122623e+04 -4.99761038e+07  4.58e-01 1.42e-08  1.70e+03     1s
   2   1.57903566e+04 -5.60059850e+06  1.11e-02 3.03e-09  1.39e+02     1s
   3   9.38454578e+03 -4.39967665e+05  6.35e-13 3.11e-10  1.08e+01     1s
   4   2.55012786e+03 -4.94999330e+04  7.19e-13 2.50e-11  1.26e+00     1s
   5   9.98841815e+02 -1.32690199e+04  4.60e-13 6.43e-12  3.44e-01     1s
   6   5.25774598e+02 -3.70230359e+03  4.29e-13 1.82e-12  1.02e-01     1s
   7   3.39553253e+02 -1.41036030e+03  2.38e-13 1.82e-12  4.22e-02     1s
   8   1.95675669e+02 -4.64546792e+02  3.26e-13 1.82e-12  1.59e-02     1s
   9   1.60611856e+02 -1.51495506e+02  3.02e-13 3.64e-12  7.53e-03     1s
  10   1.32419956e+02  1.33595914e+00  3.87e-13 1.82e-12  3.16e-03     1s
  11   1.12810165e+02  6.52615273e+01  1.81e-12 1.82e-12  1.15e-03     1s
  12   1.02846824e+02  8.21577957e+01  9.79e-12 1.82e-12  4.99e-04     1s
  13   9.95837024e+01  8.33269662e+01  5.71e-12 1.82e-12  3.92e-04     1s
  14   9.89487237e+01  8.41307275e+01  4.25e-12 1.82e-12  3.58e-04     1s
  15   9.63144584e+01  8.62146990e+01  2.80e-12 9.09e-13  2.44e-04     1s
  16   9.55077926e+01  8.93269685e+01  3.77e-12 1.82e-12  1.49e-04     1s
  17   9.49297847e+01  9.14452852e+01  5.30e-12 1.82e-12  8.41e-05     1s
  18   9.45276341e+01  9.15915787e+01  4.06e-12 1.82e-12  7.09e-05     1s
  19   9.39669379e+01  9.17116803e+01  2.87e-12 1.82e-12  5.44e-05     1s
  20   9.38929762e+01  9.20245998e+01  2.60e-12 1.82e-12  4.51e-05     1s
  21   9.34267363e+01  9.26620733e+01  2.13e-12 1.82e-12  1.85e-05     1s
  22   9.29563423e+01  9.27979868e+01  1.69e-11 3.64e-12  3.82e-06     1s
  23   9.29190406e+01  9.28455982e+01  3.12e-11 1.82e-12  1.77e-06     1s
  24   9.28882099e+01  9.28578686e+01  9.30e-11 1.82e-12  7.32e-07     1s
  25   9.28801955e+01  9.28637360e+01  1.73e-10 1.82e-12  3.97e-07     1s
  26   9.28744757e+01  9.28715844e+01  2.10e-09 1.82e-12  6.98e-08     1s
  27   9.28736418e+01  9.28725500e+01  1.03e-09 1.82e-12  2.64e-08     1s
  28   9.28729277e+01  9.28727570e+01  5.39e-10 3.64e-12  4.12e-09     1s
  29   9.28727951e+01  9.28727816e+01  8.38e-10 1.82e-12  3.24e-10     1s
  30   9.28727823e+01  9.28727823e+01  4.98e-10 1.82e-12  3.24e-13     1s

Barrier solved model in 30 iterations and 0.89 seconds (0.78 work units)
Optimal objective 9.28727823e+01


Root relaxation: objective 9.287278e+01, 1704 iterations, 0.61 seconds (0.38 work units)

    Nodes    |    Current Node    |     Objective Bounds      |     Work
 Expl Unexpl |  Obj  Depth IntInf | Incumbent    BestBd   Gap | It/Node Time

     0     0   92.87278    0   11  147.08225   92.87278  36.9%     -    1s
H    0     0                     118.9538899   92.87278  21.9%     -    1s
     0     0   95.23327    0   10  118.95389   95.23327  19.9%     -    1s
     0     0   95.56140    0    9  118.95389   95.56140  19.7%     -    2s
     0     0   95.56140    0    9  118.95389   95.56140  19.7%     -    2s
H    0     0                     104.8873400   95.65396  8.80%     -    2s
     0     0   95.65396    0   10  104.88734   95.65396  8.80%     -    2s
     0     0   95.65396    0   10  104.88734   95.65396  8.80%     -    2s
     0     0   95.67418    0    9  104.88734   95.67418  8.78%     -    3s
     0     0   95.67495    0    9  104.88734   95.67495  8.78%     -    3s
     0     0   95.67575    0    9  104.88734   95.67575  8.78%     -    3s
     0     0   95.67741    0    9  104.88734   95.67741  8.78%     -    3s
     0     0   95.67789    0    9  104.88734   95.67789  8.78%     -    3s
     0     0   95.67802    0    9  104.88734   95.67802  8.78%     -    4s
     0     2   95.67802    0    9  104.88734   95.67802  8.78%     -    7s
   117    53  102.68261    8    5  104.88734  101.18089  3.53%   311   14s
H  121    53                     104.8096895  101.18089  3.46%   309   14s
   153    57  102.73066    9    4  104.80969  101.18089  3.46%   300   21s
   289    66  104.04773   12    3  104.80969  101.18089  3.46%   239   26s

Cutting planes:
  Gomory: 4
  Implied bound: 1
  MIR: 866

Explored 736 nodes (133885 simplex iterations) in 29.52 seconds (37.22 work units)
Thread count was 36 (of 36 available processors)

Solution count 4: 104.81 104.887 118.954 147.082 

Optimal solution found (tolerance 1.00e-02)
Best objective 1.048096894844e+02, best bound 1.047489318399e+02, gap 0.0580%

Gurobi 9.5.0 (linux64) logging started Sat Nov  4 11:38:55 2023

Set parameter LogFile to value "/lustre1/scratch/348/vsc34888/JointResearch/05.Models/06.Benchmarking/E.Representative_days_based_on_Line_Benefits_OptModel/RTS24_ByStages_nc90/openStarNet_RTS24_ByStages_nc90.log"
Set parameter Method to value 2
Set parameter MIPFocus to value 1
Set parameter Presolve to value 2
Set parameter RINS to value 100
Set parameter MIPGap to value 0.01
Set parameter Threads to value 36
Set parameter TimeLimit to value 604800
Set parameter IterationLimit to value 760000000
No parameters matching 'relax_integrality' found
Gurobi Optimizer version 9.5.0 build v9.5.0rc5 (linux64)
Thread count: 36 physical cores, 36 logical processors, using up to 36 threads
Optimize a model with 40053 rows, 22615 columns and 94904 nonzeros
Model fingerprint: 0x66ecfde3
Coefficient statistics:
  Matrix range     [1e-03, 2e+03]
  Objective range  [1e+00, 1e+00]
  Bounds range     [4e-04, 3e+00]
  RHS range        [4e-04, 3e+01]
Presolve removed 31685 rows and 10493 columns
Presolve time: 0.04s
Presolved: 8368 rows, 12302 columns, 30658 nonzeros

Ordering time: 0.00s

Barrier statistics:
 AA' NZ     : 2.167e+04
 Factor NZ  : 9.194e+04 (roughly 7 MB of memory)
 Factor Ops : 1.398e+06 (less than 1 second per iteration)
 Threads    : 36

                  Objective                Residual
Iter       Primal          Dual         Primal    Dual     Compl     Time
   0   6.85511578e+05 -5.64278393e+08  5.83e+00 2.48e+03  5.30e+04     0s
   1   7.41978651e+04 -8.57777535e+07  4.69e-01 4.18e-11  5.29e+03     0s
   2   3.89915354e+04 -8.15560732e+06  1.26e-01 3.74e-11  4.74e+02     0s
   3   2.09709514e+04 -8.77838200e+05  4.88e-03 2.45e-11  4.31e+01     0s
   4   6.69428193e+03 -1.14901079e+05  2.34e-04 8.35e-10  5.77e+00     0s
   5   3.44811771e+03 -2.94226468e+04  7.52e-05 2.04e-10  1.56e+00     0s
   6   1.25588558e+03 -7.12418920e+03  1.42e-05 4.56e-11  3.97e-01     0s
   7   5.58250508e+02 -2.09539422e+03  3.25e-06 1.30e-11  1.26e-01     0s
   8   3.96296946e+02 -6.52479585e+02  1.80e-06 3.93e-12  4.97e-02     0s
   9   1.94698844e+02 -2.32775563e+02  3.91e-07 7.28e-12  2.03e-02     0s
  10   1.36742884e+02 -6.92236855e+00  1.10e-07 1.82e-12  6.81e-03     0s
  11   1.15085868e+02  6.87428397e+01  2.64e-08 3.64e-12  2.20e-03     0s
  12   1.09564020e+02  9.12031323e+01  1.04e-08 1.82e-12  8.71e-04     0s
  13   1.07066627e+02  9.92026015e+01  4.47e-09 1.82e-12  3.73e-04     0s
  14   1.05855192e+02  1.02505562e+02  1.94e-09 3.64e-12  1.59e-04     0s
  15   1.05210026e+02  1.04240090e+02  7.14e-10 3.64e-12  4.60e-05     0s
  16   1.04902361e+02  1.04772567e+02  1.57e-10 1.82e-12  6.15e-06     0s
  17   1.04826217e+02  1.04808739e+02  2.66e-11 7.28e-12  8.29e-07     0s
  18   1.04809729e+02  1.04809642e+02  6.12e-12 1.46e-11  4.13e-09     0s
  19   1.04809689e+02  1.04809689e+02  7.08e-13 1.46e-11  6.68e-15     0s

Barrier solved model in 19 iterations and 0.17 seconds (0.12 work units)
Optimal objective 1.04809689e+02

Crossover log...

     948 DPushes remaining with DInf 0.0000000e+00                 0s
       0 DPushes remaining with DInf 0.0000000e+00                 0s

     711 PPushes remaining with PInf 0.0000000e+00                 0s
       0 PPushes remaining with PInf 0.0000000e+00                 0s

  Push phase complete: Pinf 0.0000000e+00, Dinf 5.3973730e-12      0s

Iteration    Objective       Primal Inf.    Dual Inf.      Time
     716    1.0480969e+02   0.000000e+00   0.000000e+00      0s

Use crossover to convert LP symmetric solution to basic solution...
Crossover log...

       0 DPushes remaining with DInf 0.0000000e+00                 0s

     386 PPushes remaining with PInf 0.0000000e+00                 0s
       0 PPushes remaining with PInf 0.0000000e+00                 0s

  Push phase complete: Pinf 0.0000000e+00, Dinf 3.7493710e-12      0s

Iteration    Objective       Primal Inf.    Dual Inf.      Time
    1107    1.0480969e+02   0.000000e+00   0.000000e+00      0s

Solved in 1107 iterations and 0.26 seconds (0.17 work units)
Optimal objective  1.048096895e+02

Gurobi 9.5.0 (linux64) logging started Sat Nov  4 12:07:21 2023

Set parameter LogFile to value "/lustre1/scratch/348/vsc34888/JointResearch/05.Models/06.Benchmarking/E.Representative_days_based_on_Line_Benefits_OptModel/RTS24_ByStages_nc90/openStarNet_RTS24_ByStages_nc90.log"
Set parameter Method to value 2
Set parameter MIPFocus to value 1
Set parameter Presolve to value 2
Set parameter RINS to value 100
Set parameter MIPGap to value 0.01
Set parameter Threads to value 36
Set parameter TimeLimit to value 604800
Set parameter IterationLimit to value 760000000
Gurobi Optimizer version 9.5.0 build v9.5.0rc5 (linux64)
Thread count: 36 physical cores, 36 logical processors, using up to 36 threads
Optimize a model with 40053 rows, 22654 columns and 108983 nonzeros
Model fingerprint: 0x9a187d2f
Variable types: 22615 continuous, 39 integer (39 binary)
Coefficient statistics:
  Matrix range     [1e-03, 2e+03]
  Objective range  [1e+00, 1e+00]
  Bounds range     [4e-04, 3e+00]
  RHS range        [4e-04, 3e+00]
Presolve removed 19533 rows and 9589 columns
Presolve time: 0.21s
Presolved: 20520 rows, 13065 columns, 71256 nonzeros
Variable types: 13026 continuous, 39 integer (39 binary)
Found heuristic solution: objective 147.0822504
Root relaxation presolved: 20520 rows, 13065 columns, 71256 nonzeros

Root barrier log...

Ordering time: 0.01s

Barrier statistics:
 Dense cols : 39
 AA' NZ     : 1.518e+05
 Factor NZ  : 4.911e+05 (roughly 18 MB of memory)
 Factor Ops : 1.469e+07 (less than 1 second per iteration)
 Threads    : 36

                  Objective                Residual
Iter       Primal          Dual         Primal    Dual     Compl     Time
   0   6.26829997e+05 -1.82984692e+08  4.60e+00 4.85e+02  1.29e+04     0s
   1   6.99122623e+04 -4.99761038e+07  4.58e-01 1.36e-08  1.70e+03     1s
   2   1.57903566e+04 -5.60059850e+06  1.11e-02 2.87e-09  1.39e+02     1s
   3   9.38454578e+03 -4.39967665e+05  8.10e-13 2.20e-10  1.08e+01     1s
   4   2.55012786e+03 -4.94999330e+04  4.57e-13 1.78e-11  1.26e+00     1s
   5   9.98841815e+02 -1.32690199e+04  3.32e-13 4.44e-12  3.44e-01     1s
   6   5.25774598e+02 -3.70230359e+03  2.98e-13 1.82e-12  1.02e-01     1s
   7   3.39553253e+02 -1.41036030e+03  2.97e-13 1.82e-12  4.22e-02     1s
   8   1.95675669e+02 -4.64546792e+02  2.89e-13 3.64e-12  1.59e-02     1s
   9   1.60611856e+02 -1.51495506e+02  3.14e-13 1.82e-12  7.53e-03     1s
  10   1.32419956e+02  1.33595914e+00  4.55e-13 1.82e-12  3.16e-03     1s
  11   1.12810165e+02  6.52615273e+01  6.06e-13 3.64e-12  1.15e-03     1s
  12   1.02846824e+02  8.21577957e+01  1.68e-11 1.82e-12  4.99e-04     1s
  13   9.95837024e+01  8.33269662e+01  1.04e-11 3.64e-12  3.92e-04     1s
  14   9.89487237e+01  8.41307275e+01  9.45e-12 3.64e-12  3.58e-04     1s
  15   9.63144584e+01  8.62146991e+01  5.72e-12 3.64e-12  2.44e-04     1s
  16   9.55077926e+01  8.93269679e+01  4.84e-12 1.82e-12  1.49e-04     1s
  17   9.49297847e+01  9.14452851e+01  6.54e-12 3.64e-12  8.41e-05     1s
  18   9.45276341e+01  9.15915787e+01  5.22e-12 3.64e-12  7.09e-05     1s
  19   9.39669380e+01  9.17116803e+01  4.35e-12 3.64e-12  5.44e-05     1s
  20   9.38929765e+01  9.20245998e+01  3.54e-12 1.82e-12  4.51e-05     1s
  21   9.34267363e+01  9.26620733e+01  9.13e-12 3.64e-12  1.85e-05     1s
  22   9.29563423e+01  9.27979868e+01  1.23e-11 1.82e-12  3.82e-06     1s
  23   9.29190406e+01  9.28455981e+01  3.12e-11 2.73e-12  1.77e-06     1s
  24   9.28882099e+01  9.28578686e+01  6.91e-11 1.82e-12  7.32e-07     1s
  25   9.28801955e+01  9.28637360e+01  1.73e-10 1.82e-12  3.97e-07     1s
  26   9.28744757e+01  9.28715845e+01  2.10e-09 1.82e-12  6.98e-08     1s
  27   9.28736417e+01  9.28725500e+01  1.31e-09 1.82e-12  2.64e-08     1s
  28   9.28729277e+01  9.28727570e+01  7.38e-10 1.82e-12  4.12e-09     1s
  29   9.28727951e+01  9.28727816e+01  8.86e-10 3.64e-12  3.24e-10     1s
  30   9.28727823e+01  9.28727823e+01  1.25e-09 1.82e-12  3.24e-13     1s

Barrier solved model in 30 iterations and 0.91 seconds (0.78 work units)
Optimal objective 9.28727823e+01


Root relaxation: objective 9.287278e+01, 1704 iterations, 0.63 seconds (0.38 work units)

    Nodes    |    Current Node    |     Objective Bounds      |     Work
 Expl Unexpl |  Obj  Depth IntInf | Incumbent    BestBd   Gap | It/Node Time

     0     0   92.87278    0   11  147.08225   92.87278  36.9%     -    1s
H    0     0                     118.9538899   92.87278  21.9%     -    1s
     0     0   95.48456    0    9  118.95389   95.48456  19.7%     -    1s
     0     0   95.56140    0    9  118.95389   95.56140  19.7%     -    2s
H    0     0                     104.8873400   95.65396  8.80%     -    2s
     0     0   95.65396    0   10  104.88734   95.65396  8.80%     -    2s
     0     0   95.65396    0   10  104.88734   95.65396  8.80%     -    2s
     0     0   95.67418    0    9  104.88734   95.67418  8.78%     -    2s
     0     0   95.67530    0    9  104.88734   95.67530  8.78%     -    3s
     0     0   95.67564    0    9  104.88734   95.67564  8.78%     -    3s
     0     0   95.67575    0    9  104.88734   95.67575  8.78%     -    3s
     0     0   95.67741    0    9  104.88734   95.67741  8.78%     -    3s
     0     0   95.67789    0    9  104.88734   95.67789  8.78%     -    3s
     0     0   95.67802    0    9  104.88734   95.67802  8.78%     -    3s
     0     2   95.67802    0    9  104.88734   95.67802  8.78%     -    7s
H   96    53                     104.8096895  100.56793  4.05%   339    9s
   116    52  102.68645    8    5  104.80969  101.18413  3.46%   316   11s
   275    71  103.39135   11    3  104.80969  101.32927  3.32%   249   15s

Cutting planes:
  Gomory: 4
  Implied bound: 1
  MIR: 804

Explored 732 nodes (126844 simplex iterations) in 19.81 seconds (20.77 work units)
Thread count was 36 (of 36 available processors)

Solution count 4: 104.81 104.887 118.954 147.082 

Optimal solution found (tolerance 1.00e-02)
Best objective 1.048096894844e+02, best bound 1.048096894844e+02, gap 0.0000%

Gurobi 9.5.0 (linux64) logging started Sat Nov  4 12:07:46 2023

Set parameter LogFile to value "/lustre1/scratch/348/vsc34888/JointResearch/05.Models/06.Benchmarking/E.Representative_days_based_on_Line_Benefits_OptModel/RTS24_ByStages_nc90/openStarNet_RTS24_ByStages_nc90.log"
Set parameter Method to value 2
Set parameter MIPFocus to value 1
Set parameter Presolve to value 2
Set parameter RINS to value 100
Set parameter MIPGap to value 0.01
Set parameter Threads to value 36
Set parameter TimeLimit to value 604800
Set parameter IterationLimit to value 760000000
No parameters matching 'relax_integrality' found
Gurobi Optimizer version 9.5.0 build v9.5.0rc5 (linux64)
Thread count: 36 physical cores, 36 logical processors, using up to 36 threads
Optimize a model with 40053 rows, 22615 columns and 94904 nonzeros
Model fingerprint: 0xffe5a630
Coefficient statistics:
  Matrix range     [1e-03, 2e+03]
  Objective range  [1e+00, 1e+00]
  Bounds range     [4e-04, 3e+00]
  RHS range        [4e-04, 3e+01]
Presolve removed 31685 rows and 10493 columns
Presolve time: 0.04s
Presolved: 8368 rows, 12302 columns, 30658 nonzeros

Ordering time: 0.00s

Barrier statistics:
 AA' NZ     : 2.167e+04
 Factor NZ  : 9.193e+04 (roughly 7 MB of memory)
 Factor Ops : 1.398e+06 (less than 1 second per iteration)
 Threads    : 36

                  Objective                Residual
Iter       Primal          Dual         Primal    Dual     Compl     Time
   0   7.02008185e+05 -5.64338531e+08  6.00e+00 8.21e+02  5.37e+04     0s
   1   8.14763035e+04 -8.76965913e+07  5.39e-01 4.68e-11  5.58e+03     0s
   2   4.06709219e+04 -8.89143752e+06  1.43e-01 3.47e-11  5.28e+02     0s
   3   2.23754734e+04 -9.23466239e+05  6.08e-03 2.26e-11  4.55e+01     0s
   4   7.43872987e+03 -1.27618110e+05  2.94e-04 3.40e-10  6.41e+00     0s
   5   3.80452655e+03 -3.26060157e+04  9.57e-05 7.47e-11  1.73e+00     0s
   6   1.28211771e+03 -7.82919556e+03  1.88e-05 1.74e-11  4.32e-01     0s
   7   5.98198445e+02 -2.75099395e+03  4.96e-06 7.28e-12  1.59e-01     0s
   8   3.92434853e+02 -8.36750316e+02  2.44e-06 7.28e-12  5.83e-02     0s
   9   1.83988536e+02 -2.77420924e+02  4.06e-07 7.28e-12  2.19e-02     0s
  10   1.37881290e+02 -2.57545895e+00  1.44e-07 7.28e-12  6.66e-03     0s
  11   1.17592254e+02  7.42643089e+01  4.60e-08 1.82e-12  2.05e-03     0s
  12   1.11496268e+02  9.24313714e+01  2.21e-08 7.28e-12  9.04e-04     0s
  13   1.07908552e+02  9.97745235e+01  9.32e-09 3.64e-12  3.86e-04     0s
  14   1.06308122e+02  1.02653037e+02  4.24e-09 7.28e-12  1.73e-04     0s
  15   1.05435894e+02  1.04182945e+02  1.74e-09 3.64e-12  5.94e-05     0s
  16   1.04979689e+02  1.04704754e+02  4.59e-10 1.82e-12  1.30e-05     0s
  17   1.04873078e+02  1.04788165e+02  1.68e-10 1.09e-11  4.03e-06     0s
  18   1.04810253e+02  1.04809141e+02  5.04e-12 7.28e-12  5.27e-08     0s
  19   1.04809690e+02  1.04809689e+02  3.44e-12 7.28e-12  5.30e-11     0s
  20   1.04809689e+02  1.04809689e+02  1.15e-12 7.28e-12  5.30e-14     0s

Barrier solved model in 20 iterations and 0.17 seconds (0.12 work units)
Optimal objective 1.04809689e+02

Crossover log...

     950 DPushes remaining with DInf 0.0000000e+00                 0s
       0 DPushes remaining with DInf 0.0000000e+00                 0s

     713 PPushes remaining with PInf 0.0000000e+00                 0s
       0 PPushes remaining with PInf 0.0000000e+00                 0s

  Push phase complete: Pinf 0.0000000e+00, Dinf 2.6623746e-12      0s

Iteration    Objective       Primal Inf.    Dual Inf.      Time
     718    1.0480969e+02   0.000000e+00   0.000000e+00      0s

Use crossover to convert LP symmetric solution to basic solution...
Crossover log...

       0 DPushes remaining with DInf 0.0000000e+00                 0s

     386 PPushes remaining with PInf 0.0000000e+00                 0s
       0 PPushes remaining with PInf 0.0000000e+00                 0s

  Push phase complete: Pinf 0.0000000e+00, Dinf 2.5097104e-12      0s

Iteration    Objective       Primal Inf.    Dual Inf.      Time
    1109    1.0480969e+02   0.000000e+00   0.000000e+00      0s

Solved in 1109 iterations and 0.27 seconds (0.17 work units)
Optimal objective  1.048096895e+02

Gurobi 11.0.0 (linux64) logging started Wed Apr 10 22:14:42 2024

Set parameter LogFile to value "/lustre1/scratch/348/vsc34888/JointResearch/05.Models/06.Benchmarking/E.Representative_days_based_on_Line_Benefits_OptModel/RTS24_ByStages_nc90/openStarNet_RTS24_ByStages_nc90.log"
Set parameter Method to value 2
Set parameter MIPFocus to value 1
Set parameter Presolve to value 2
Set parameter RINS to value 100
Set parameter MIPGap to value 0.01
Set parameter Threads to value 36
Set parameter TimeLimit to value 259200
Set parameter IterationLimit to value 760000000
Gurobi Optimizer version 11.0.0 build v11.0.0rc2 (linux64 - "Rocky Linux 8.8 (Green Obsidian)")

CPU model: Intel(R) Xeon(R) Gold 6240 CPU @ 2.60GHz, instruction set [SSE2|AVX|AVX2|AVX512]
Thread count: 36 physical cores, 36 logical processors, using up to 36 threads

Optimize a model with 35013 rows, 21091 columns and 93872 nonzeros
Model fingerprint: 0xecbea53d
Variable types: 21061 continuous, 30 integer (30 binary)
Coefficient statistics:
  Matrix range     [1e-03, 9e+02]
  Objective range  [1e+00, 1e+00]
  Bounds range     [4e-04, 3e+00]
  RHS range        [4e-04, 3e+00]
Presolve removed 18723 rows and 9890 columns
Presolve time: 0.21s
Presolved: 16290 rows, 11201 columns, 57341 nonzeros
Variable types: 11171 continuous, 30 integer (30 binary)
Found heuristic solution: objective 313.1162882
Root relaxation presolved: 16290 rows, 11201 columns, 57341 nonzeros

Root barrier log...

Ordering time: 0.01s

Barrier statistics:
 Dense cols : 30
 AA' NZ     : 1.202e+05
 Factor NZ  : 3.149e+05 (roughly 14 MB of memory)
 Factor Ops : 6.712e+06 (less than 1 second per iteration)
 Threads    : 36

                  Objective                Residual
Iter       Primal          Dual         Primal    Dual     Compl     Time
   0   8.07302584e+05 -1.61923693e+08  6.33e+00 1.89e+02  1.39e+04     0s
   1   1.41034390e+05 -4.70168824e+07  8.92e-01 5.64e-09  2.08e+03     0s
   2   4.95412176e+04 -7.18921462e+06  1.47e-01 2.64e-09  2.50e+02     0s
   3   2.76195963e+04 -5.38683072e+05  1.45e-03 1.05e-09  1.65e+01     0s
   4   1.05581628e+04 -7.37300490e+04  2.53e-05 1.12e-10  2.45e+00     0s
   5   3.64510937e+03 -1.85444475e+04  6.76e-06 2.52e-11  6.46e-01     0s
   6   1.67796918e+03 -8.33809622e+03  2.40e-06 1.12e-11  2.91e-01     0s
   7   7.35129204e+02 -2.05823136e+03  5.27e-07 2.48e-12  8.13e-02     0s
   8   3.88940941e+02 -3.41561298e+02  1.13e-07 1.82e-12  2.13e-02     0s
   9   3.03763879e+02  5.50485125e+00  6.08e-08 1.82e-12  8.68e-03     0s
  10   2.37730817e+02  1.15375141e+02  2.51e-08 1.82e-12  3.56e-03     1s
  11   2.08970687e+02  1.61731771e+02  1.08e-08 1.82e-12  1.37e-03     1s
  12   1.96983584e+02  1.77132029e+02  5.03e-09 1.82e-12  5.78e-04     1s
  13   1.92619177e+02  1.78804675e+02  2.95e-09 1.82e-12  4.02e-04     1s
  14   1.90439102e+02  1.82570365e+02  1.76e-09 1.82e-12  2.29e-04     1s
  15   1.88974156e+02  1.84584480e+02  1.05e-09 1.82e-12  1.28e-04     1s
  16   1.87955478e+02  1.85984621e+02  5.28e-10 1.82e-12  5.73e-05     1s
  17   1.87688285e+02  1.86017978e+02  3.98e-10 9.09e-13  4.86e-05     1s
  18   1.87347466e+02  1.86490252e+02  2.22e-10 9.09e-13  2.49e-05     1s
  19   1.87123911e+02  1.86628337e+02  1.25e-10 3.64e-12  1.44e-05     1s
  20   1.86967708e+02  1.86813902e+02  6.44e-11 1.82e-12  4.47e-06     1s
  21   1.86906636e+02  1.86867961e+02  5.89e-11 3.64e-12  1.13e-06     1s
  22   1.86884137e+02  1.86875902e+02  2.97e-10 3.64e-12  2.40e-07     1s
  23   1.86879139e+02  1.86877515e+02  8.74e-10 1.82e-12  4.72e-08     1s
  24   1.86878199e+02  1.86877896e+02  2.53e-10 1.82e-12  8.80e-09     1s
  25   1.86877985e+02  1.86877967e+02  1.51e-10 1.82e-12  5.27e-10     1s
  26   1.86877974e+02  1.86877974e+02  5.33e-11 1.82e-12  6.51e-13     1s

Barrier solved model in 26 iterations and 0.63 seconds (0.67 work units)
Optimal objective 1.86877974e+02


Root relaxation: objective 1.868780e+02, 2297 iterations, 0.41 seconds (0.28 work units)

    Nodes    |    Current Node    |     Objective Bounds      |     Work
 Expl Unexpl |  Obj  Depth IntInf | Incumbent    BestBd   Gap | It/Node Time

     0     0  186.87797    0   21  313.11629  186.87797  40.3%     -    1s
H    0     0                     255.1672512  189.93142  25.6%     -    1s
     0     0  189.93142    0   20  255.16725  189.93142  25.6%     -    1s
     0     0  189.98231    0   19  255.16725  189.98231  25.5%     -    1s
     0     0  190.45918    0   23  255.16725  190.45918  25.4%     -    2s
     0     0  190.52332    0   22  255.16725  190.52332  25.3%     -    2s
     0     0  190.54324    0   22  255.16725  190.54324  25.3%     -    2s
     0     0  190.54382    0   23  255.16725  190.54382  25.3%     -    2s
H    0     0                     247.6038734  190.84586  22.9%     -    3s
     0     0  190.84586    0   22  247.60387  190.84586  22.9%     -    3s
     0     0  190.84951    0   21  247.60387  190.84951  22.9%     -    3s
     0     0  190.85095    0   21  247.60387  190.85095  22.9%     -    3s
     0     0  190.85099    0   21  247.60387  190.85099  22.9%     -    3s
     0     0  190.87338    0   20  247.60387  190.87338  22.9%     -    4s
     0     0  190.87521    0   20  247.60387  190.87521  22.9%     -    4s
     0     0  190.87521    0   20  247.60387  190.87521  22.9%     -    4s
     0     0  191.03223    0   20  247.60387  191.03223  22.8%     -    5s
H    0     0                     245.0793683  191.03223  22.1%     -    8s
H    0     0                     221.4649182  191.03223  13.7%     -   47s
     0     2  191.03223    0   20  221.46492  191.03223  13.7%     -   48s
    15    30  194.86389    4   16  221.46492  191.51203  13.5%  1205   50s
H   97   132                     220.5788557  197.08564  10.7%   777   86s
H   98   132                     219.4690527  197.08564  10.2%   774   86s
   341   335  212.55168   11   13  219.46905  197.22645  10.1%   560   90s
  1177   578  219.04823   12   11  219.46905  199.00716  9.32%   445   96s
  1376   602  214.01691   11   11  219.46905  199.32862  9.18%   432  109s
  1438   594  215.91612   12   11  219.46905  199.32862  9.18%   432  110s
  2654   773  215.31023    9   13  219.46905  203.45506  7.30%   398  115s
  4386  1028     cutoff   13       219.46905  207.50843  5.45%   361  134s
  4726  1086     cutoff   13       219.46905  207.65309  5.38%   353  135s
  5087  1125  218.76446   13   11  219.46905  207.65309  5.38%   347  163s
  5879  1272  218.37537   12   11  219.46905  209.90526  4.36%   335  165s
  6797  1339  217.35407   17    6  219.46905  210.81419  3.94%   323  202s
  8366  1547  218.57067   16    7  219.46905  211.88784  3.45%   304  205s
  9799  1655  217.05040   11    9  219.46905  212.91611  2.99%   290  234s
 10181  1688  217.40547   13    8  219.46905  213.05508  2.92%   288  270s
 11966  1827  216.24181   16    7  219.46905  214.00059  2.49%   275  293s
 13051  1844  215.46009   12   11  219.46905  214.27387  2.37%   267  295s
 14358  1811  219.17605   16    7  219.46905  214.79319  2.13%   260  302s
 15600  1800     cutoff   22       219.46905  215.24490  1.92%   255  331s
 16190  1762  217.31089   17    6  219.46905  215.28495  1.91%   252  356s
 17192  1677  218.08366   17    6  219.46905  215.49974  1.81%   248  388s
 18088  1507     cutoff   20       219.46905  215.61603  1.76%   245  411s
 22054   129  219.17877   18    5  219.46905  216.78153  1.22%   231  441s

Cutting planes:
  Learned: 14
  Gomory: 1
  Implied bound: 124
  MIR: 630
  Relax-and-lift: 29

Explored 23827 nodes (5308424 simplex iterations) in 441.72 seconds (532.27 work units)
Thread count was 36 (of 36 available processors)

Solution count 7: 219.469 220.579 221.465 ... 313.116

Optimal solution found (tolerance 1.00e-02)
Best objective 2.194690527345e+02, best bound 2.175982257216e+02, gap 0.8524%

Gurobi 11.0.0 (linux64) logging started Wed Apr 10 22:22:08 2024

Set parameter LogFile to value "/lustre1/scratch/348/vsc34888/JointResearch/05.Models/06.Benchmarking/E.Representative_days_based_on_Line_Benefits_OptModel/RTS24_ByStages_nc90/openStarNet_RTS24_ByStages_nc90.log"
Set parameter Method to value 2
Set parameter MIPFocus to value 1
Set parameter Presolve to value 2
Set parameter RINS to value 100
Set parameter MIPGap to value 0.01
Set parameter Threads to value 36
Set parameter TimeLimit to value 259200
Set parameter IterationLimit to value 760000000
Gurobi Optimizer version 11.0.0 build v11.0.0rc2 (linux64 - "Rocky Linux 8.8 (Green Obsidian)")

CPU model: Intel(R) Xeon(R) Gold 6240 CPU @ 2.60GHz, instruction set [SSE2|AVX|AVX2|AVX512]
Thread count: 36 physical cores, 36 logical processors, using up to 36 threads

Optimize a model with 35013 rows, 21061 columns and 83042 nonzeros
Model fingerprint: 0x69cfe4c7
Coefficient statistics:
  Matrix range     [1e-03, 9e+02]
  Objective range  [1e+00, 1e+00]
  Bounds range     [4e-04, 3e+00]
  RHS range        [4e-04, 4e+01]
Presolve removed 30074 rows and 12434 columns
Presolve time: 0.04s
Presolved: 4939 rows, 8730 columns, 22106 nonzeros

Ordering time: 0.00s

Barrier statistics:
 AA' NZ     : 1.309e+04
 Factor NZ  : 4.508e+04 (roughly 4 MB of memory)
 Factor Ops : 6.652e+05 (less than 1 second per iteration)
 Threads    : 1

                  Objective                Residual
Iter       Primal          Dual         Primal    Dual     Compl     Time
   0   3.28903913e+06 -2.04257858e+08  1.38e+01 1.39e+03  1.31e+05     0s
   1   2.19876038e+05 -1.21935526e+08  7.87e-01 6.67e-11  1.43e+04     0s
   2   7.18833909e+04 -2.92516408e+07  1.86e-01 1.26e-10  2.67e+03     0s
   3   4.01571653e+04 -6.34385974e+06  3.20e-02 5.61e-11  4.89e+02     0s
   4   3.18007694e+04 -3.54433919e+05  1.49e-03 4.65e-11  2.74e+01     0s
   5   1.77623642e+04 -1.07940275e+05  1.71e-04 1.46e-11  8.87e+00     0s
   6   7.22788722e+03 -3.26598558e+04  3.66e-05 1.46e-11  2.81e+00     0s
   7   1.31135747e+03 -8.97815686e+03  2.01e-06 8.88e-12  7.25e-01     0s
   8   5.64731001e+02 -1.04566750e+03  9.69e-08 1.46e-11  1.14e-01     0s
   9   3.58034890e+02 -1.69369521e+02  2.15e-08 1.46e-11  3.72e-02     0s
  10   3.00276078e+02  3.59633302e+01  1.12e-08 7.28e-12  1.86e-02     0s
  11   2.58562337e+02  1.25852904e+02  5.05e-09 3.64e-12  9.36e-03     0s
  12   2.31954682e+02  1.92505493e+02  1.33e-09 7.28e-12  2.78e-03     0s
  13   2.26740583e+02  2.06977595e+02  7.41e-10 1.46e-11  1.39e-03     0s
  14   2.20399490e+02  2.16428464e+02  6.55e-11 7.28e-12  2.80e-04     0s
  15   2.19587111e+02  2.18799808e+02  1.08e-11 1.46e-11  5.55e-05     0s
  16   2.19497504e+02  2.19323703e+02  3.76e-11 1.46e-11  1.23e-05     0s
  17   2.19474789e+02  2.19421428e+02  5.06e-11 7.28e-12  3.76e-06     0s
  18   2.19470284e+02  2.19462301e+02  5.14e-11 7.28e-12  5.63e-07     0s
  19   2.19469085e+02  2.19468791e+02  5.82e-11 1.46e-11  2.07e-08     0s
  20   2.19469054e+02  2.19469045e+02  1.34e-10 7.28e-12  7.01e-10     0s
  21   2.19469053e+02  2.19469053e+02  1.25e-10 7.28e-12  7.01e-13     0s

Barrier solved model in 21 iterations and 0.10 seconds (0.11 work units)
Optimal objective 2.19469053e+02

Crossover log...

     983 DPushes remaining with DInf 0.0000000e+00                 0s
       0 DPushes remaining with DInf 0.0000000e+00                 0s

     314 PPushes remaining with PInf 0.0000000e+00                 0s
       0 PPushes remaining with PInf 0.0000000e+00                 0s

  Push phase complete: Pinf 0.0000000e+00, Dinf 2.6666620e-12      0s

Iteration    Objective       Primal Inf.    Dual Inf.      Time
     343    2.1946905e+02   0.000000e+00   0.000000e+00      0s

Use crossover to convert LP symmetric solution to basic solution...
Crossover log...

       0 DPushes remaining with DInf 0.0000000e+00                 0s

     197 PPushes remaining with PInf 0.0000000e+00                 0s
       0 PPushes remaining with PInf 0.0000000e+00                 0s

  Push phase complete: Pinf 0.0000000e+00, Dinf 1.0958114e-12      0s

Iteration    Objective       Primal Inf.    Dual Inf.      Time
     564    2.1946905e+02   0.000000e+00   0.000000e+00      0s

Solved in 564 iterations and 0.15 seconds (0.13 work units)
Optimal objective  2.194690527e+02
